##TITLE= SPLICCO spectrum (File: c:\Users\DeMilleGroup\Desktop\Robert\beam profiler image\linear profiler\2in after lens.jdx)
##JCAMP-DX= 4.24
##DATE= 13.5.2025
##TIME= 17:54:26
##DATA TYPE= INFRARED SPECTRUM
##OWNER= Public Domain
##RESOLUTION= 2.0
##DELTAX= 1.00000000
##XUNITS= ARBITRARY UNITS
##YUNITS= ARBITRARY UNITS
##APPLICATION= SPLICCO
$$SHOW_VERTICAL_FLIPPED= 0
$$SHOW_HORIZONTAL_FLIPPED= 0
##XFACTOR= 1.0
##YFACTOR= 0.000001
##FIRSTX= 1.000
##LASTX= 3000.000
##NPOINTS= 3000
##FIRSTY= 0.000000
##XYDATA= (X++(Y..Y))
1.000  0 0 153 2475 3725 3751 3725 4516
9.000  3981 2985 3470 3496 2705 2220 2194 3240
17.000  5256 8344 10105 10641 9595 8854 8829 7834
25.000  7808 8344 8829 7068 6277 5537 6277 8599
33.000  8319 7323 7298 6047 6277 6813 7298 8599
41.000  9084 8344 6788 8344 14443 16510 12657 8089
49.000  7553 5027 4746 6303 9595 12427 11636 9620
57.000  11126 13193 12912 11662 12657 13703 14954 14469
65.000  11636 10130 10871 9110 7298 7323 7298 8089
73.000  10871 11917 14699 19572 18782 14469 13167 11662
81.000  12657 15745 12657 7068 8319 13448 14443 9620
89.000  8829 16510 23630 22124 15209 8599 8319 9365
97.000  9595 11662 16230 14724 10360 9875 12147 12937
105.000  12402 11917 13423 16510 16230 13958 15209 16000
113.000  16995 18552 26693 31056 25417 20083 16230 11917
121.000  8319 8089 14699 19828 16995 13958 16485 15234
129.000  10871 9110 11892 16510 16995 17786 18527 15234
137.000  14699 14213 12657 13193 13933 11662 9850 11917
145.000  15209 16000 17251 16255 11381 10386 18782 27483
153.000  23630 16765 15719 15745 17251 17786 19547 21359
161.000  20823 16000 11126 6303 6788 8854 11126 17786
169.000  21334 16765 15209 18552 20568 15489 14443 19062
177.000  19547 20593 24396 30035 37411 37946 31541 20593
185.000  14443 19828 32307 35139 28989 25442 22865 18296
193.000  14699 10386 7808 13703 24396 29525 27458 27228
201.000  29755 27483 23375 27483 28734 22379 23120 25442
209.000  27458 29525 34349 34628 27458 23655 32052 39987
217.000  39708 29780 20568 22635 24906 23400 20058 16510
225.000  19547 23400 26693 31056 38687 42539 38942 38711
233.000  37666 36159 36900 35394 34604 29269 24906 26973
241.000  32817 31056 23886 19828 22354 24676 26182 30290
249.000  35369 38967 48384 55554 62165 72396 65992 46112
257.000  35624 48664 76966 80562 57316 40753 35880 33608
265.000  36390 46112 66248 77755 71607 62188 55785 53512
273.000  49405 34884 24396 25697 31286 39477 42259 40498
281.000  48895 54788 59102 63464 62930 57085 61144 71120
289.000  71607 61678 54764 55809 54764 54023 50426 45601
297.000  53488 66527 87173 126240 167559 165029 115500 73417
305.000  53233 45601 43025 45601 44301 37435 40473 55043
313.000  70841 94852 131832 144103 126218 90769 47108 27993
321.000  31797 48919 80794 96128 92788 84135 73393 75458
329.000  88449 118074 163476 169877 143826 142317 163221 179574
337.000  154289 120626 120859 132110 114990 69334 51957 71120
345.000  79518 74693 77221 91280 124432 168091 208135 225763
353.000  192058 116033 54764 43305 79007 136703 157862 118585
361.000  75435 83114 131322 199479 297708 344425 296177 226274
369.000  155565 119095 110141 114502 129025 147166 161945 165029
377.000  160159 143593 144847 201010 240545 219639 159138 91790
385.000  97636 172174 251263 298491 293114 228825 144082 89238
393.000  96616 143593 177512 173450 182361 239288 311488 340852
401.000  341856 326817 256622 158139 91001 96384 111927 116543
409.000  134895 154056 150206 140020 154034 187230 203797 213514
417.000  206094 180340 171898 150738 121625 106336 130046 207135
425.000  303577 391890 434747 388062 286735 193610 172918 195396
433.000  206604 208666 246669 293898 326034 341618 340836 306147
441.000  197927 108888 94829 128792 178533 195396 195120 216066
449.000  202010 194886 218343 269655 282141 263020 250242 214790
457.000  165007 110419 120859 191313 270147 304616 308426 356164
465.000  441892 459004 359465 239288 206094 206879 205073 196672
473.000  174705 193099 279079 351315 371969 350805 269892 188251
481.000  155820 199224 283417 337025 323227 283946 268361 290836
489.000  290562 254854 217577 219383 272954 323244 297963 229846
497.000  204818 206369 222426 254344 293625 317630 311233 320182
505.000  312764 235460 174450 165539 171387 167836 154289 137469
513.000  130301 165284 191803 208410 270913 296195 252794 221935
521.000  226254 274504 341856 385510 370183 325286 316592 333452
529.000  327310 296960 246924 232653 260960 318651 326545 269910
537.000  232634 221170 207625 174981 150206 141296 125452 115778
545.000  136426 164774 166283 145379 147144 199224 250752 229081
553.000  190527 209431 237737 233164 199714 163498 154289 128792
561.000  92277 152269 307405 450838 444954 337790 280355 231377
569.000  188740 161201 149185 172429 201500 268379 337773 334728
577.000  265809 213769 208901 232398 233654 202796 151737 94597
585.000  70331 81327 146123 226018 244117 232398 246159 245413
593.000  242076 255110 268361 273228 245904 197948 159138 127771
601.000  84622 65251 99423 174471 258153 307933 305364 251792
609.000  195631 137724 104016 123433 154034 198458 228295 233419
617.000  233144 213259 187720 183147 196141 191313 157352 122668
625.000  114224 134662 173684 225763 266064 263531 237993 204072
633.000  199203 211218 239779 291091 312509 284456 236717 232143
641.000  257898 268890 256111 228060 188740 157118 156331 156352
649.000  152248 140786 131322 122157 114224 135682 165518 174726
657.000  168580 172684 184912 175747 161945 168601 198183 196672
665.000  159393 156352 178277 211983 234420 250006 273465 255875
673.000  206349 144359 111927 123433 162966 198713 233144 314823
681.000  428877 500854 448017 351825 301025 273228 230337 170898
689.000  153524 142062 119838 108632 116521 130323 132598 131599
697.000  135150 141807 147909 162987 161435 144869 153013 166560
705.000  166283 153290 143061 143848 179809 251027 336752 428892
713.000  453121 391890 353595 316354 258153 256130 299239 344680
721.000  333690 340087 399785 429147 406420 321458 229316 223722
729.000  264533 292877 256111 204583 208645 210197 199203 181105
737.000  149185 130834 165518 213769 206349 158904 122135 104805
745.000  101975 87707 66248 85666 118052 120116 117286 145635
753.000  212473 299767 387536 392145 305619 230612 202521 230612
761.000  325779 427361 450569 396483 321441 279863 261470 249496
769.000  218088 240564 313785 402863 428877 371475 286990 217852
777.000  208645 219639 211197 177022 153013 138234 131067 140020
785.000  144337 104549 60889 59892 74159 83114 91767 130834
793.000  175726 205093 192823 185444 255091 315844 352064 311761
801.000  222426 189527 170366 178554 237227 297726 325269 296195
809.000  228040 200755 214260 241330 236206 203817 170111 170643
817.000  214260 223722 184912 153035 159138 206114 260960 268379
825.000  247180 260979 259684 196417 119073 81072 86153 125220
833.000  176236 245668 334200 403373 357933 245157 184657 172940
841.000  206094 243116 227785 163498 120604 149718 201500 228315
849.000  248456 258937 266829 241585 195375 197437 203286 192334
857.000  188740 183147 165518 147676 155055 185954 217832 219128
865.000  197417 170132 138467 164774 229826 299512 342111 323244
873.000  316082 302830 266319 247709 230337 239288 269381 328348
881.000  328331 229591 136426 88983 83856 101232 138978 186720
889.000  206859 192079 204052 239798 265554 262765 224978 165794
897.000  110651 119861 204307 316610 337263 266083 195120 170132
905.000  144847 109143 122135 180595 219364 210707 177257 167070
913.000  200734 231122 222426 196417 184402 183913 184912 195651
921.000  179809 165284 158372 146655 153779 143848 141019 129558
929.000  87684 51981 52978 73927 103506 132110 153524 164518
937.000  178022 181871 166539 159159 168325 193099 236972 295684
945.000  342367 326052 244883 188761 174960 169367 126473 92811
953.000  121369 191313 259174 288029 278313 248985 208901 165539
961.000  136426 164518 197672 191568 157096 109398 88449 86431
969.000  99423 122923 143571 161711 194355 230612 230337 187740
977.000  162711 169112 174960 178554 220640 287518 378094 410773
985.000  344408 242095 166283 170643 167815 162222 170877 173195
993.000  170877 177022 177512 189271 218343 262255 270147 217342
1001.000  166794 147676 167815 216321 246669 249751 221150 190803
1009.000  191037 187230 196141 188506 180829 203052 197672 164263
1017.000  125197 121647 155820 198458 236972 286242 388557 433485
1025.000  408207 358715 330373 320182 289031 254599 207114 189527
1033.000  203286 231888 236462 227294 218343 238267 238758 200500
1041.000  151227 127516 123921 140276 159138 151759 140509 166305
1049.000  213749 229336 193079 132365 115500 132620 146378 136958
1057.000  122901 124964 128770 129813 126984 122923 118562 122668
1065.000  159138 229336 313275 390103 444699 456197 465370 431954
1073.000  368141 303850 216556 163498 130301 134406 164242 181871
1081.000  190782 214535 230847 273483 302046 271697 210432 169367
1089.000  162711 145124 118817 110419 115755 142317 170877 193610
1097.000  193589 164263 151482 165029 154289 125730 121369 126751
1105.000  141785 179319 204307 185188 134384 109143 145868 236736
1113.000  353850 430933 450569 432975 390598 349784 276527 189782
1121.000  111927 77245 73903 76989 80794 104294 127239 122668
1129.000  103251 121902 213239 306657 357933 359736 292604 230357
1137.000  205073 199734 193079 160435 138467 160691 216046 216832
1145.000  159648 109908 99423 121647 124942 116033 119073 118585
1153.000  101720 89238 110141 159159 222936 273483 313019 342639
1161.000  341856 332431 305364 296195 269381 209431 153779 139000
1169.000  148420 136448 100444 83369 101975 139765 182105 235715
1177.000  318889 388062 426836 407711 333435 267103 231868 237757
1185.000  214260 165539 117541 81327 95340 128537 164497 200500
1193.000  234930 260979 263257 236481 215025 208666 192568 167836
1201.000  119838 97149 111417 131599 138212 126496 118307 124454
1209.000  143571 192589 248456 265827 231102 178298 140254 142317
1217.000  180574 208666 234675 250006 255346 276800 341346 436803
1225.000  519216 512338 403613 271952 162455 142827 168835 215811
1233.000  246159 211983 163221 157373 211963 271952 295411 280883
1241.000  245904 211218 194865 231888 274485 273483 237482 194120
1249.000  156076 144869 141785 133386 129025 172940 247690 297471
1257.000  290562 255110 245393 233419 225488 212238 182871 148442
1265.000  136681 166305 227785 276290 257387 210197 209156 247199
1273.000  282651 256641 186954 152525 151737 188506 244117 263276
1281.000  236206 181361 139998 127771 108610 96639 120859 158394
1289.000  179553 198458 229061 292112 403613 471253 462052 419705
1297.000  341091 256641 187720 177788 221660 247454 235696 216066
1305.000  209156 223211 214770 195651 187209 188506 204818 207135
1313.000  211963 226529 252028 271697 292349 335493 384729 382448
1321.000  336497 309720 255091 204583 174960 155076 126218 95363
1329.000  77476 90769 108865 119095 130556 142317 167559 211473
1337.000  269126 306402 346705 387807 426070 429657 378349 334217
1345.000  274996 216066 167559 146400 133363 112971 115755 186975
1353.000  279589 342383 387025 412305 376307 261489 154544 116543
1361.000  121369 141807 202010 271442 319144 321713 281631 242605
1369.000  197672 164774 128260 114502 128515 153545 150717 130579
1377.000  103506 72651 79263 134917 224212 279097 299749 333962
1385.000  407186 483246 516664 483246 436278 414856 343643 222701
1393.000  104271 70354 95084 157883 236717 302319 318889 267869
1401.000  193589 156608 163987 178043 165007 141552 139233 164263
1409.000  195886 212493 197417 184168 198948 176512 115500 108377
1417.000  148165 166560 145358 116798 102740 108122 137702 172684
1425.000  171898 151249 190016 270931 324248 303085 254835 250771
1433.000  287755 326052 336242 320693 292604 291091 264278 202031
1441.000  112438 73672 99933 149718 194610 222191 229061 220915
1449.000  186188 149973 165007 226274 258919 234184 202266 181616
1457.000  156331 123178 94064 87962 108865 125220 114224 100211
1465.000  112438 164518 229061 253578 270657 296705 318634 309720
1473.000  258153 241585 252539 256641 245138 236991 264022 294408
1481.000  289542 263020 246924 263786 233144 189527 155310 130579
1489.000  126984 135682 158883 175236 178277 170643 150717 129558
1497.000  109120 102763 112948 144614 169601 179319 165518 139000
1505.000  139998 142827 125963 94342 72117 72651 93043 124199
1513.000  174450 245413 306384 330390 332669 294919 230592 191058
1521.000  168580 153545 143826 152014 199203 235460 197927 133641
1529.000  102485 125475 168070 177788 152248 159925 208390 260979
1537.000  293625 279097 239269 197693 148930 111440 108099 142062
1545.000  188485 208666 205073 219639 238758 266593 285714 246433
1553.000  179809 119605 78242 76734 123411 195651 249987 289049
1561.000  327310 346977 319144 269145 234420 204072 189506 175236
1569.000  160414 156863 159138 169112 165007 156608 159648 192079
1577.000  206604 196927 201245 189016 186954 214790 252283 252813
1585.000  223447 168601 108099 94597 110906 132110 164752 199734
1593.000  224467 256130 271678 272207 278058 259193 217322 179574
1601.000  144337 125985 121369 127516 140764 174471 212984 230101
1609.000  203542 166560 151737 161456 174450 192589 234675 246433
1617.000  207625 171153 180829 238522 292349 310230 308936 307678
1625.000  322972 316865 279334 209431 176746 181871 191292 204327
1633.000  193589 168091 150717 168601 217322 289560 340325 358715
1641.000  328586 257151 209411 193354 205328 172684 130301 125220
1649.000  136171 121647 98657 113226 162966 217087 259174 280118
1657.000  268105 241840 210177 194886 207880 270166 326034 297471
1665.000  230082 209431 235696 260979 243607 199224 173684 167836
1673.000  172408 190803 254070 294408 289542 253578 206604 172940
1681.000  134639 118585 149441 265062 354871 330390 244372 162222
1689.000  133619 131854 116266 89493 80538 105315 154289 182892
1697.000  174450 147676 123666 122157 140764 161456 184912 213004
1705.000  234675 216576 175215 164008 204052 262510 255091 201776
1713.000  188740 210452 217577 188251 168070 179319 205328 224998
1721.000  235696 250516 269381 272207 265043 228825 181085 152525
1729.000  119328 122668 192568 293643 343643 318651 254580 187740
1737.000  160414 158394 170622 180850 180829 161456 136936 129558
1745.000  133619 125730 101209 88473 100444 118585 139743 167836
1753.000  195631 202031 188485 183147 214005 271186 295666 272973
1761.000  221405 165284 159393 185699 229061 297981 371714 414346
1769.000  442147 414091 363293 314823 253559 209431 184912 174726
1777.000  169346 175491 186444 209431 222171 248220 272699 283691
1785.000  268105 240564 224212 197182 195631 184678 163476 132620
1793.000  89215 78520 94574 113991 125452 130579 150717 187996
1801.000  227785 287518 323993 327327 337008 345191 313530 246944
1809.000  186699 135172 137447 192589 284438 336259 319144 264296
1817.000  208645 190803 191548 178554 149185 107867 94829 130068
1825.000  174194 214280 249732 306913 331904 286753 207369 142827
1833.000  156586 215300 286990 308444 270402 211728 163476 134662
1841.000  113714 135427 218598 335749 414842 436547 419690 386531
1849.000  324503 249496 203542 160946 158372 197693 263002 303595
1857.000  301281 242605 179553 186720 202776 199224 185168 193354
1865.000  235441 253834 227019 168346 132343 129558 152248 189016
1873.000  212729 222446 236717 237247 222936 239288 320165 422767
1881.000  474302 442672 348236 254599 195375 141807 114224 131089
1889.000  174194 256130 363037 377599 288776 204838 186188 190292
1897.000  165263 142062 160669 227039 290052 302830 255091 180340
1905.000  151482 161966 172918 175491 232634 365861 486296 477377
1913.000  364058 277566 244117 244647 231613 166049 103506 76989
1921.000  120859 220404 324503 395717 411779 380917 330373 263786
1929.000  198948 135172 114990 165284 256622 321458 306640 240309
1937.000  214005 238012 271423 290836 323227 367137 359975 331921
1945.000  329352 360502 368141 310230 247435 212493 209156 231888
1953.000  262746 249240 193334 198969 280355 386276 438064 413836
1961.000  356657 252303 162455 120116 146123 214280 273209 282415
1969.000  232378 200755 193844 171919 194865 231888 224723 185699
1977.000  162966 173450 243352 296450 269892 197437 153269 155332
1985.000  192058 268635 333180 345956 326034 299767 269892 252558
1993.000  245138 204327 166283 154056 149185 136193 140764 183402
2001.000  249476 300278 306129 300278 311999 315589 292859 216832
2009.000  153013 138234 153013 181105 203286 242095 284438 351060
2017.000  413566 399545 354871 311761 252794 194375 216301 311506
2025.000  430153 456197 403103 336514 242076 200244 207880 229336
2033.000  224467 176002 139233 128537 127239 116033 120349 152525
2041.000  206349 220149 170111 111950 99168 139510 171387 182381
2049.000  196907 210707 206349 182126 144337 106336 109375 136703
2057.000  171132 220149 248711 229336 190272 196417 258919 319161
2065.000  339304 353867 362782 344425 342111 376834 412034 439099
2073.000  408972 298491 186444 103274 93043 106591 108099 102763
2081.000  107334 133641 153013 157883 191548 246944 299749 290581
2089.000  207625 128282 97636 99956 100699 106591 117541 131344
2097.000  126728 110674 104782 117054 151993 214535 261215 255110
2105.000  234675 225253 251008 317886 368907 398014 353595 238267
2113.000  155310 135172 172153 218108 235441 233674 244628 208666
2121.000  149441 122413 119073 122157 107844 109398 176746 265062
2129.000  325269 328093 285459 215045 164242 175236 191037 188506
2137.000  173429 163753 180829 194120 187975 211218 265043 271697
2145.000  239269 230612 241821 259448 274996 281139 295156 336514
2153.000  402082 429402 360996 235715 157607 136958 145358 160691
2161.000  167559 197182 254580 303340 294390 231377 166028 160946
2169.000  195631 196672 159904 158139 242586 330390 337518 267869
2177.000  198948 192079 235186 279097 274485 218873 155565 124709
2185.000  139488 180340 209921 211473 217322 236226 224723 191313
2193.000  164497 175747 208901 216576 188740 167836 192568 190292
2201.000  168325 166049 185168 226018 248456 243371 225999 198713
2209.000  174194 193610 232378 244392 220129 176767 149951 145379
2217.000  186188 297981 400806 427616 396212 386531 387281 373006
2225.000  325014 237247 184402 162987 160414 134406 95084 75969
2233.000  112182 171919 183126 147421 126728 164263 211453 231122
2241.000  209921 171153 184657 195396 194099 195651 180064 148186
2249.000  122390 126496 146378 168601 202010 253578 308171 343149
2257.000  311999 225253 156841 131344 139743 223722 329607 435527
2265.000  497014 491923 426836 302830 208135 156608 167304 194120
2273.000  184912 147421 132598 153290 153269 125220 85387 63209
2281.000  96871 168346 228806 281394 353340 350294 280865 217852
2289.000  167049 124454 107079 156608 258663 332942 351298 324265
2297.000  304088 361012 422242 422512 331904 213514 170877 212749
2305.000  272699 284456 257898 261234 272699 255365 248200 251282
2313.000  233399 207645 211963 224998 214260 198203 178022 172429
2321.000  176491 158139 144337 150483 162200 145890 151737 224742
2329.000  327821 348253 278568 210452 200734 220404 232378 262510
2337.000  296942 348253 379370 407966 479661 505193 449037 334473
2345.000  246924 214790 235696 289560 297197 284456 257898 193610
2353.000  141019 135682 149185 149207 163987 209686 271168 313037
2361.000  326034 319927 330117 359481 332925 262510 184912 146400
2369.000  187209 287263 378094 415367 400296 331155 263257 224487
2377.000  204562 229081 270402 308188 331649 359481 488082 543726
2385.000  452610 308954 198183 191058 219108 235460 258153 275780
2393.000  269892 247964 198693 156863 148930 171664 232889 292877
2401.000  307150 280883 249221 269400 320420 362798 345429 330645
2409.000  364058 386276 388557 381937 338539 260213 207625 211473
2417.000  294135 365095 336752 248985 200479 217852 255601 269655
2425.000  250752 209431 204307 245413 288776 317375 356402 370709
2433.000  343643 304871 266574 232143 206349 229591 257387 237247
2441.000  192823 165284 197672 260724 301791 299767 288521 353356
2449.000  414076 395717 347726 280628 225999 178809 123666 100466
2457.000  151993 271952 347981 312016 225233 158139 141019 163242
2465.000  190527 174726 171898 235205 340070 405925 445720 511317
2473.000  487572 351060 204818 151759 224467 346977 431684 483502
2481.000  445210 307678 220384 222701 254580 213004 135405 103274
2489.000  120859 164774 225999 297471 359465 359226 283162 208666
2497.000  170877 155587 142040 136448 155565 181616 176236 153035
2505.000  142295 140786 149696 204072 241055 234184 253815 321969
2513.000  357423 288284 206859 232143 338284 432464 406420 331666
2521.000  325014 341618 295666 206879 178277 178043 190782 263531
2529.000  331393 324010 315316 370199 443168 413836 313530 272717
2537.000  275506 245157 179298 158904 225743 267869 213494 155332
2545.000  154800 225508 284948 273228 209411 131089 100188 132365
2553.000  235441 270166 205073 181105 221150 275525 267340 248475
2561.000  294135 370709 392129 369433 366100 372751 414842 453390
2569.000  465115 516931 547032 528925 511049 452624 348236 242605
2577.000  187464 181616 176491 171153 220129 235971 173429 153290
2585.000  225488 304616 297963 255110 211197 157883 139998 173450
2593.000  251008 270676 191803 128537 157096 273228 388812 439610
2601.000  387281 284966 246924 297981 399275 460790 443934 412815
2609.000  402847 358205 300770 279352 304853 346211 322717 250516
2617.000  226764 248475 312254 325541 266319 224232 206094 216321
2625.000  237737 264552 262236 191313 115245 90514 109120 140531
2633.000  175981 208921 225488 234439 228551 215811 244372 338045
2641.000  464604 486819 417904 362543 335987 286498 198948 162732
2649.000  181340 212238 246159 281649 293370 246178 197927 179574
2657.000  160414 183147 263002 290070 217577 134662 98657 95108
2665.000  126728 156863 160414 120626 81559 97404 116266 103018
2673.000  92022 121902 205583 301554 365589 338045 278568 254089
2681.000  231613 214025 176746 146655 151993 166560 185678 224232
2689.000  221150 184168 144592 123944 119583 104039 112948 129047
2697.000  133363 122157 108610 97404 88194 86942 82835 78010
2705.000  72372 73162 80283 92811 115755 149462 193844 195396
2713.000  165007 162477 187464 203817 161180 103274 73138 77245
2721.000  99423 136703 168580 167581 131067 81838 61654 76224
2729.000  103506 126496 130556 100211 82070 93066 90491 62699
2737.000  45577 52236 62420 79541 106823 115523 107844 93066
2745.000  81559 100211 139743 144359 101975 68568 70076 104294
2753.000  110906 80052 68289 80307 82835 72141 69565 68313
2761.000  64461 57340 51446 52747 74924 102763 106313 77755
2769.000  52212 60402 78242 78776 62930 57085 69820 83369
2777.000  75179 48153 35880 43815 55019 65506 69055 55298
2785.000  35624 27228 26438 32587 35880 34884 36900 41263
2793.000  48639 60913 71862 75969 72883 50705 39452 49940
2801.000  53998 56319 65992 60913 43280 34118 30265 32332
2809.000  33328 27993 29755 34628 35880 31566 22610 18041
2817.000  18527 22890 28479 27993 30521 31821 32307 39477
2825.000  44301 41263 37411 35649 37921 34118 24396 22124
2833.000  23375 24421 23886 23145 24396 21614 19037 16765
2841.000  14188 12937 12912 10130 8829 9365 10871 9620
2849.000  10616 13703 16740 16255 14954 14213 14188 14724
2857.000  16230 16765 15209 13448 12912 9875 10360 16510
2865.000  16995 11406 9595 9620 10616 11406 9340 7579
2873.000  8574 7579 7043 9365 11636 13193 13933 11917
2881.000  10616 8599 6788 6558 5512 5027 4746 3240
2889.000  2960 3751 3981 3751 2960 1964 2449 3751
2897.000  3725 2985 3215 3240 2960 2475 2194 2220
2905.000  2705 3751 4491 3751 3470 2220 1684 2475
2913.000  2705 1709 1684 2475 2960 2475 2194 2475
2921.000  2194 1709 1429 2475 2194 1454 1939 1709
2929.000  1939 2730 1684 1199 1173 944 918 1454
2937.000  1429 1199 1429 944 1173 1454 918 178
2945.000  408 1199 918 1454 1939 1454 408 178
2953.000  918 944 918 689 408 433 408 944
2961.000  663 689 153 178 663 433 408 944
2969.000  1684 1454 663 689 918 689 918 689
2977.000  663 433 0 0 408 1454 1429 944
2985.000  663 433 1173 1199 663 433 918 1454
2993.000  918 178 153 0 1173 1199 918 1199
##END=
